Nodes = {"ATLAM5", "ATLAng", "CHINng", "DNVRng", "HSTNng", "IPLSng", "KSCYng", "LOSAng", "NYCMng", "SNVAng", "STTLng", "WASHng"};
Arcs = {<"ATLAM5","ATLAng",30,0>, <"ATLAM5","CHINng",30,9>, <"ATLAM5","DNVRng",30,22>, <"ATLAM5","HSTNng",30,12>, <"ATLAM5","IPLSng",30,6>, <"ATLAM5","KSCYng",30,13>, <"ATLAM5","LOSAng",30,34>, <"ATLAM5","NYCMng",30,13>, <"ATLAM5","SNVAng",30,38>, <"ATLAM5","STTLng",30,40>, <"ATLAM5","WASHng",30,9>, <"ATLAng","ATLAM5",30,0>, <"ATLAng","CHINng",30,8>, <"ATLAng","DNVRng",30,20>, <"ATLAng","HSTNng",30,0>, <"ATLAng","IPLSng",30,0>, <"ATLAng","KSCYng",30,12>, <"ATLAng","LOSAng",30,33>, <"ATLAng","NYCMng",30,13>, <"ATLAng","SNVAng",30,37>, <"ATLAng","STTLng",30,39>, <"ATLAng","WASHng",30,0>, <"CHINng","ATLAM5",30,9>, <"CHINng","ATLAng",30,8>, <"CHINng","DNVRng",30,17>, <"CHINng","HSTNng",30,14>, <"CHINng","IPLSng",30,0>, <"CHINng","KSCYng",30,9>, <"CHINng","LOSAng",30,32>, <"CHINng","NYCMng",30,0>, <"CHINng","SNVAng",30,35>, <"CHINng","STTLng",30,35>, <"CHINng","WASHng",30,11>, <"DNVRng","ATLAM5",30,22>, <"DNVRng","ATLAng",30,20>, <"DNVRng","CHINng",30,17>, <"DNVRng","HSTNng",30,15>, <"DNVRng","IPLSng",30,19>, <"DNVRng","KSCYng",30,0>, <"DNVRng","LOSAng",30,15>, <"DNVRng","NYCMng",30,31>, <"DNVRng","SNVAng",30,0>, <"DNVRng","STTLng",30,0>, <"DNVRng","WASHng",30,28>, <"HSTNng","ATLAM5",30,12>, <"HSTNng","ATLAng",30,0>, <"HSTNng","CHINng",30,14>, <"HSTNng","DNVRng",30,15>, <"HSTNng","IPLSng",30,14>, <"HSTNng","KSCYng",30,0>, <"HSTNng","LOSAng",30,0>, <"HSTNng","NYCMng",30,24>, <"HSTNng","SNVAng",30,28>, <"HSTNng","STTLng",30,32>, <"HSTNng","WASHng",30,21>, <"IPLSng","ATLAM5",30,6>, <"IPLSng","ATLAng",30,0>, <"IPLSng","CHINng",30,0>, <"IPLSng","DNVRng",30,19>, <"IPLSng","HSTNng",30,14>, <"IPLSng","KSCYng",30,0>, <"IPLSng","LOSAng",30,33>, <"IPLSng","NYCMng",30,12>, <"IPLSng","SNVAng",30,36>, <"IPLSng","STTLng",30,37>, <"IPLSng","WASHng",30,9>, <"KSCYng","ATLAM5",30,13>, <"KSCYng","ATLAng",30,12>, <"KSCYng","CHINng",30,9>, <"KSCYng","DNVRng",30,0>, <"KSCYng","HSTNng",30,0>, <"KSCYng","IPLSng",30,0>, <"KSCYng","LOSAng",30,22>, <"KSCYng","NYCMng",30,23>, <"KSCYng","SNVAng",30,25>, <"KSCYng","STTLng",30,27>, <"KSCYng","WASHng",30,20>, <"LOSAng","ATLAM5",30,34>, <"LOSAng","ATLAng",30,33>, <"LOSAng","CHINng",30,32>, <"LOSAng","DNVRng",30,15>, <"LOSAng","HSTNng",30,0>, <"LOSAng","IPLSng",30,33>, <"LOSAng","KSCYng",30,22>, <"LOSAng","NYCMng",30,45>, <"LOSAng","SNVAng",30,0>, <"LOSAng","STTLng",30,14>, <"LOSAng","WASHng",30,42>, <"NYCMng","ATLAM5",30,13>, <"NYCMng","ATLAng",30,13>, <"NYCMng","CHINng",30,0>, <"NYCMng","DNVRng",30,31>, <"NYCMng","HSTNng",30,24>, <"NYCMng","IPLSng",30,12>, <"NYCMng","KSCYng",30,23>, <"NYCMng","LOSAng",30,45>, <"NYCMng","SNVAng",30,48>, <"NYCMng","STTLng",30,49>, <"NYCMng","WASHng",30,0>, <"SNVAng","ATLAM5",30,38>, <"SNVAng","ATLAng",30,37>, <"SNVAng","CHINng",30,35>, <"SNVAng","DNVRng",30,0>, <"SNVAng","HSTNng",30,28>, <"SNVAng","IPLSng",30,36>, <"SNVAng","KSCYng",30,25>, <"SNVAng","LOSAng",30,0>, <"SNVAng","NYCMng",30,48>, <"SNVAng","STTLng",30,0>, <"SNVAng","WASHng",30,45>, <"STTLng","ATLAM5",30,40>, <"STTLng","ATLAng",30,39>, <"STTLng","CHINng",30,35>, <"STTLng","DNVRng",30,0>, <"STTLng","HSTNng",30,32>, <"STTLng","IPLSng",30,37>, <"STTLng","KSCYng",30,27>, <"STTLng","LOSAng",30,14>, <"STTLng","NYCMng",30,49>, <"STTLng","SNVAng",30,0>, <"STTLng","WASHng",30,46>, <"WASHng","ATLAM5",30,9>, <"WASHng","ATLAng",30,0>, <"WASHng","CHINng",30,11>, <"WASHng","DNVRng",30,28>, <"WASHng","HSTNng",30,21>, <"WASHng","IPLSng",30,9>, <"WASHng","KSCYng",30,20>, <"WASHng","LOSAng",30,42>, <"WASHng","NYCMng",30,0>, <"WASHng","SNVAng",30,45>, <"WASHng","STTLng",30,46>};
Demands = {<"ATLAM5","ATLAng",2,0>, <"ATLAM5","CHINng",4,0>, <"ATLAM5","DNVRng",6,0>, <"ATLAM5","HSTNng",8,0>, <"ATLAM5","IPLSng",10,0>, <"ATLAM5","KSCYng",12,0>, <"ATLAM5","LOSAng",14,0>, <"ATLAM5","NYCMng",16,0>, <"ATLAM5","SNVAng",18,0>, <"ATLAM5","STTLng",20,0>, <"ATLAM5","WASHng",22,0>, <"ATLAng","ATLAM5",2,0>, <"ATLAng","CHINng",2,0>, <"ATLAng","DNVRng",4,0>, <"ATLAng","HSTNng",6,0>, <"ATLAng","IPLSng",8,0>, <"ATLAng","KSCYng",10,0>, <"ATLAng","LOSAng",12,0>, <"ATLAng","NYCMng",14,0>, <"ATLAng","SNVAng",16,0>, <"ATLAng","STTLng",18,0>, <"ATLAng","WASHng",20,0>, <"CHINng","ATLAM5",4,0>, <"CHINng","ATLAng",2,0>, <"CHINng","DNVRng",2,0>, <"CHINng","HSTNng",4,0>, <"CHINng","IPLSng",6,0>, <"CHINng","KSCYng",8,0>, <"CHINng","LOSAng",10,0>, <"CHINng","NYCMng",12,0>, <"CHINng","SNVAng",14,0>, <"CHINng","STTLng",16,0>, <"CHINng","WASHng",18,0>, <"DNVRng","ATLAM5",6,0>, <"DNVRng","ATLAng",4,0>, <"DNVRng","CHINng",2,0>, <"DNVRng","HSTNng",2,0>, <"DNVRng","IPLSng",4,0>, <"DNVRng","KSCYng",6,0>, <"DNVRng","LOSAng",8,0>, <"DNVRng","NYCMng",10,0>, <"DNVRng","SNVAng",12,0>, <"DNVRng","STTLng",14,0>, <"DNVRng","WASHng",16,0>, <"HSTNng","ATLAM5",8,0>, <"HSTNng","ATLAng",6,0>, <"HSTNng","CHINng",4,0>, <"HSTNng","DNVRng",2,0>, <"HSTNng","IPLSng",2,0>, <"HSTNng","KSCYng",4,0>, <"HSTNng","LOSAng",6,0>, <"HSTNng","NYCMng",8,0>, <"HSTNng","SNVAng",10,0>, <"HSTNng","STTLng",12,0>, <"HSTNng","WASHng",14,0>, <"IPLSng","ATLAM5",10,0>, <"IPLSng","ATLAng",8,0>, <"IPLSng","CHINng",6,0>, <"IPLSng","DNVRng",4,0>, <"IPLSng","HSTNng",2,0>, <"IPLSng","KSCYng",2,0>, <"IPLSng","LOSAng",4,0>, <"IPLSng","NYCMng",6,0>, <"IPLSng","SNVAng",8,0>, <"IPLSng","STTLng",10,0>, <"IPLSng","WASHng",12,0>, <"KSCYng","ATLAM5",12,0>, <"KSCYng","ATLAng",10,0>, <"KSCYng","CHINng",8,0>, <"KSCYng","DNVRng",6,0>, <"KSCYng","HSTNng",4,0>, <"KSCYng","IPLSng",2,0>, <"KSCYng","LOSAng",2,0>, <"KSCYng","NYCMng",4,0>, <"KSCYng","SNVAng",6,0>, <"KSCYng","STTLng",8,0>, <"KSCYng","WASHng",10,0>, <"LOSAng","ATLAM5",14,0>, <"LOSAng","ATLAng",12,0>, <"LOSAng","CHINng",10,0>, <"LOSAng","DNVRng",8,0>, <"LOSAng","HSTNng",6,0>, <"LOSAng","IPLSng",4,0>, <"LOSAng","KSCYng",2,0>, <"LOSAng","NYCMng",2,0>, <"LOSAng","SNVAng",4,0>, <"LOSAng","STTLng",6,0>, <"LOSAng","WASHng",8,0>, <"NYCMng","ATLAM5",16,0>, <"NYCMng","ATLAng",14,0>, <"NYCMng","CHINng",12,0>, <"NYCMng","DNVRng",10,0>, <"NYCMng","HSTNng",8,0>, <"NYCMng","IPLSng",6,0>, <"NYCMng","KSCYng",4,0>, <"NYCMng","LOSAng",2,0>, <"NYCMng","SNVAng",2,0>, <"NYCMng","STTLng",4,0>, <"NYCMng","WASHng",6,0>, <"SNVAng","ATLAM5",18,0>, <"SNVAng","ATLAng",16,0>, <"SNVAng","CHINng",14,0>, <"SNVAng","DNVRng",12,0>, <"SNVAng","HSTNng",10,0>, <"SNVAng","IPLSng",8,0>, <"SNVAng","KSCYng",6,0>, <"SNVAng","LOSAng",4,0>, <"SNVAng","NYCMng",2,0>, <"SNVAng","STTLng",2,0>, <"SNVAng","WASHng",4,0>, <"STTLng","ATLAM5",20,0>, <"STTLng","ATLAng",18,0>, <"STTLng","CHINng",16,0>, <"STTLng","DNVRng",14,0>, <"STTLng","HSTNng",12,0>, <"STTLng","IPLSng",10,0>, <"STTLng","KSCYng",8,0>, <"STTLng","LOSAng",6,0>, <"STTLng","NYCMng",4,0>, <"STTLng","SNVAng",2,0>, <"STTLng","WASHng",2,0>, <"WASHng","ATLAM5",22,0>, <"WASHng","ATLAng",20,0>, <"WASHng","CHINng",18,0>, <"WASHng","DNVRng",16,0>, <"WASHng","HSTNng",14,0>, <"WASHng","IPLSng",12,0>, <"WASHng","KSCYng",10,0>, <"WASHng","LOSAng",8,0>, <"WASHng","NYCMng",6,0>, <"WASHng","SNVAng",4,0>, <"WASHng","STTLng",2,0>};
